(set-logic HORN)
(declare-fun state (Int Int Int Int Int Int Int Int Int Int Int Int (Array Int Int) (Array Int Int) (Array Int Int) Bool Int Int Int Int Int) Bool)
(assert (forall ((|E_1| Int) (|K_1| Int) (|D_1| Int) (|N_1| Int) (|O_1| Int) (|v_18| Int) (|B_1| Int) (|H_1| Int) (|G_1| Int) (|C_1| Int) (|M_1| Int) (|A_1| Int) (|P_1| (Array Int Int)) (|Q_1| (Array Int Int)) (|R_1| (Array Int Int)) (|.loc.17| Bool) (|F_1| Int) (|F_2| Int) (|A_3| Int) (|C_3| Int) (|E_3| Int) (|.loc.33| Bool) (|.y.32| (Array Int Int)) (|.y.31| (Array Int Int)) (|.y.30| (Array Int Int)) (|.y.29| Int) (|.y.28| Int) (|.y.27| Int) (|.y.26| Int) (|.y.25| Int) (|.y.24| Int) (|.y.22| Int) (|.y.21| Int) (|.y.19| Int) (|.y.18| Int) (|.y.23| Int) (|.y.20| Int) (|.xtv.1| Int) (|.xtv.2| Int) (|.xiv.1| Int) (|.xiv.2| Int) (|.xiv.3| Int)) (=> (let ((.def_44 (<= 0 C_1))) (let ((.def_47 (not (<= A_3 0)))) (let ((.def_75 (<= 0 C_3))) (or (and (and (and (and (and (and (and (and (and (= (+ A_1 (+ (* 4 A_3) (* (- 1) (select P_1 A_1)))) 0) (not .loc.17)) (or (and (= C_1 A_3) .def_44) (and .def_47 (not .def_44)))) (not (<= A_1 0))) (<= 1 C_1)) (= A_1 (select Q_1 A_1))) (= D_1 O_1)) (= H_1 A_1)) (= O_1 0)) (= O_1 v_18)) (and .loc.17 (and (not (<= 0 E_3)) (and (= (+ (* 4 A_3) (* (- 1) E_3)) 0) (and (<= 1 C_3) (or (and (= A_3 C_3) .def_75) (and .def_47 (not .def_75))))))))))) (state |E_1| |K_1| |D_1| |N_1| |O_1| |v_18| |B_1| |H_1| |G_1| |C_1| |M_1| |A_1| |P_1| |Q_1| |R_1| |.loc.17| |F_1| |F_2| |A_3| |C_3| |E_3|))))
(assert (forall ((|E_1| Int) (|K_1| Int) (|D_1| Int) (|N_1| Int) (|O_1| Int) (|v_18| Int) (|B_1| Int) (|H_1| Int) (|G_1| Int) (|C_1| Int) (|M_1| Int) (|A_1| Int) (|P_1| (Array Int Int)) (|Q_1| (Array Int Int)) (|R_1| (Array Int Int)) (|.loc.17| Bool) (|F_1| Int) (|F_2| Int) (|A_3| Int) (|C_3| Int) (|E_3| Int) (|.loc.33| Bool) (|.y.32| (Array Int Int)) (|.y.31| (Array Int Int)) (|.y.30| (Array Int Int)) (|.y.29| Int) (|.y.28| Int) (|.y.27| Int) (|.y.26| Int) (|.y.25| Int) (|.y.24| Int) (|.y.22| Int) (|.y.21| Int) (|.y.19| Int) (|.y.18| Int) (|.y.23| Int) (|.y.20| Int) (|.xtv.1| Int) (|.xtv.2| Int) (|.xiv.1| Int) (|.xiv.2| Int) (|.xiv.3| Int)) (=> (and (state |E_1| |K_1| |D_1| |N_1| |O_1| |v_18| |B_1| |H_1| |G_1| |C_1| |M_1| |A_1| |P_1| |Q_1| |R_1| |.loc.17| |F_1| |F_2| |A_3| |C_3| |E_3|) (let ((.def_44 (<= 0 C_1))) (let ((.def_48 (not .def_44))) (let ((.def_97 (<= 0 D_1))) (let ((.def_104 (or (and .def_44 (= C_1 F_1)) (and .def_48 (not (<= F_1 0)))))) (let ((.def_111 (= (+ A_1 (+ (* 4 F_1) (* (- 1) (select P_1 A_1)))) 0))) (let ((.def_113 (select R_1 F_1))) (let ((.def_116 (select P_1 F_1))) (let ((.def_118 (select Q_1 F_1))) (let ((.def_145 (select P_1 (+ (* 4 D_1) H_1)))) (let ((.def_147 (select Q_1 (+ (* 4 D_1) H_1)))) (let ((.def_149 (select R_1 (+ (* 4 D_1) H_1)))) (let ((.def_153 (= .def_147 (select Q_1 H_1)))) (let ((.def_157 (= .def_145 (select P_1 H_1)))) (let ((.def_164 (= .def_149 (select R_1 H_1)))) (and (and (not .loc.17) (and (not (= (ite (<= C_1 D_1) 0 1) 0)) (and (not (<= A_1 0)) (and (<= 1 C_1) (and (= A_1 (select Q_1 A_1)) (and (= H_1 A_1) (and (= O_1 0) (= D_1 v_18)))))))) (or (and (or (and (and (not .def_97) .def_104) .def_111) (and (not (= .def_113 1)) (and (or (<= .def_116 F_1) (not (<= .def_118 F_1))) (and (or (and .def_48 (not (<= F_2 0))) (and .def_44 (= C_1 F_2))) (and (and (<= (+ (* 4 D_1) (+ H_1 (* (- 1) F_1))) 0) (and (not (<= (+ (* 4 D_1) (+ H_1 (* (- 1) F_1))) (- 4))) (and (= (+ A_1 (+ (* 4 F_2) (* (- 1) (select P_1 A_1)))) 0) (and (= .def_116 .def_145) (and (and (= .def_118 .def_147) (and (and .def_97 (= .def_113 .def_149)) .def_153)) .def_157))))) .def_164))))) .loc.33) (and (= R_1 .y.32) (and (= Q_1 .y.31) (and (= P_1 .y.30) (and (= A_1 .y.29) (and (= M_1 .y.28) (and (= C_1 .y.27) (and (= G_1 .y.26) (and (= H_1 .y.25) (and (= B_1 .y.24) (and (= O_1 .y.22) (and (= N_1 .y.21) (and (= K_1 .y.19) (and (= E_1 .y.18) (and (= (+ D_1 (* (- 1) .y.23)) (- 1)) (and (= .y.23 .y.20) (and (not .loc.33) (and .def_164 (and .def_157 (and .def_153 (and .def_111 (and .def_97 .def_104)))))))))))))))))))))))))))))))))))))) (state |.y.18| |.y.19| |.y.20| |.y.21| |.y.22| |.y.23| |.y.24| |.y.25| |.y.26| |.y.27| |.y.28| |.y.29| |.y.30| |.y.31| |.y.32| |.loc.33| |.xtv.1| |.xtv.2| |.xiv.1| |.xiv.2| |.xiv.3|))))
(assert (forall ((|E_1| Int) (|K_1| Int) (|D_1| Int) (|N_1| Int) (|O_1| Int) (|v_18| Int) (|B_1| Int) (|H_1| Int) (|G_1| Int) (|C_1| Int) (|M_1| Int) (|A_1| Int) (|P_1| (Array Int Int)) (|Q_1| (Array Int Int)) (|R_1| (Array Int Int)) (|.loc.17| Bool) (|F_1| Int) (|F_2| Int) (|A_3| Int) (|C_3| Int) (|E_3| Int) (|.loc.33| Bool) (|.y.32| (Array Int Int)) (|.y.31| (Array Int Int)) (|.y.30| (Array Int Int)) (|.y.29| Int) (|.y.28| Int) (|.y.27| Int) (|.y.26| Int) (|.y.25| Int) (|.y.24| Int) (|.y.22| Int) (|.y.21| Int) (|.y.19| Int) (|.y.18| Int) (|.y.23| Int) (|.y.20| Int) (|.xtv.1| Int) (|.xtv.2| Int) (|.xiv.1| Int) (|.xiv.2| Int) (|.xiv.3| Int)) (=> (state |E_1| |K_1| |D_1| |N_1| |O_1| |v_18| |B_1| |H_1| |G_1| |C_1| |M_1| |A_1| |P_1| |Q_1| |R_1| |.loc.17| |F_1| |F_2| |A_3| |C_3| |E_3|) (not .loc.17))))
(check-sat)
